SYSTEM = DOS

ISTART = 1
NSW = 0
NELM = 200
ISMEAR = -1
ISPIN = 2
IBRION = 2
ISIF = 0
ISYM = -1
SYMPREC = 1E-3
SIGMA = 0.027
LREAL = AUTO
EDIFF = 1E-6
EDIFFG = -0.05
ENCUT = 600
NCORE = 16
MAGMOM = 4 3 3 4 10*0
LASPH = .TRUE.
NWRITE = 2
PREC = ACCURATE
GGA = LIBXC
LIBXC1 = 324
LIBXC2 = 132
IALGO = 58
LWAVE = .TRUE.
LORBIT = 10
ICHARG = 11
NEDOS = 3000
EMIN = -9
EMAX = 9
