Special k-points for band structure
200  ! intersections 
line-mode
reciprocal
    0.0000000000     0.0000000000     0.0000000000 1    GAMMA
    0.5000000000     0.0000000000     0.0000000000 1    X 


    0.0000000000     0.5000000000     0.0000000000 1    Y 
    0.0000000000     0.0000000000     0.0000000000 1    GAMMA


    0.0000000000     0.0000000000     0.0000000000 1    GAMMA
    0.0000000000     0.0000000000     0.5000000000 1    Z 


   -0.5000000000    -0.5000000000     0.5000000000 1    R_2
    0.0000000000     0.0000000000     0.0000000000 1    GAMMA


    0.0000000000     0.0000000000     0.0000000000 1    GAMMA
    0.0000000000    -0.5000000000     0.5000000000 1    T_2


   -0.5000000000     0.0000000000     0.5000000000 1    U_2
    0.0000000000     0.0000000000     0.0000000000 1    GAMMA


    0.0000000000     0.0000000000     0.0000000000 1    GAMMA
    0.5000000000    -0.5000000000     0.0000000000 1    V_2


    0.0000000000     0.0000000000     0.0000000000 1    GAMMA
   -0.5000000000    -0.0000000000    -0.0000000000 1    X'


   -0.0000000000    -0.5000000000    -0.0000000000 1    Y'
    0.0000000000     0.0000000000     0.0000000000 1    GAMMA


    0.0000000000     0.0000000000     0.0000000000 1    GAMMA
   -0.0000000000    -0.0000000000    -0.5000000000 1    Z'


    0.5000000000     0.5000000000    -0.5000000000 1    R_2'
    0.0000000000     0.0000000000     0.0000000000 1    GAMMA


    0.0000000000     0.0000000000     0.0000000000 1    GAMMA
   -0.0000000000     0.5000000000    -0.5000000000 1    T_2'


    0.5000000000    -0.0000000000    -0.5000000000 1    U_2'
    0.0000000000     0.0000000000     0.0000000000 1    GAMMA


    0.0000000000     0.0000000000     0.0000000000 1    GAMMA
   -0.5000000000     0.5000000000    -0.0000000000 1    V_2'


