DOS                                   
   1.00000000000000     
     5.5560377182657898    0.2905344094942464    0.1322753597161252
     0.1298375409504169    5.5618004854591687    0.1344034580552407
    -2.7874887306176492   -2.8712076329981935    6.0719936493417714
   Cr   F 
     4    10
Direct
  0.4999764866265792  0.0000203130598138  0.9999961135992024
  0.0000204170604903  0.4999852558888520  0.0000022610941954
  0.4999881920914078  0.9999838923833195  0.4999960814560396
  0.9999832207452357  0.5000261370463619  0.4999999457130428
  0.8182698602785905  0.8146702321107426  0.0396824089801342
  0.8663269196034236  0.4145852991592136  0.1837788966015239
  0.3140138005636572  0.6859630325519817  0.2500038488454308
  0.5850060247532198  0.1339357924633902  0.3161874991839753
  0.1852489422212500  0.1816973633849699  0.4607523333264538
  0.8147627219163383  0.8182850475690628  0.5392597905896963
  0.4150052361884562  0.8660711898558304  0.6838126401914977
  0.6859902061623373  0.3140444146523507  0.7499937614999581
  0.1336759285686639  0.5854135104717599  0.8162201402064397
  0.1817515792203608  0.1853185044023604  0.9603146597124166
 
  0.00000000E+00  0.00000000E+00  0.00000000E+00
  0.00000000E+00  0.00000000E+00  0.00000000E+00
  0.00000000E+00  0.00000000E+00  0.00000000E+00
  0.00000000E+00  0.00000000E+00  0.00000000E+00
  0.00000000E+00  0.00000000E+00  0.00000000E+00
  0.00000000E+00  0.00000000E+00  0.00000000E+00
  0.00000000E+00  0.00000000E+00  0.00000000E+00
  0.00000000E+00  0.00000000E+00  0.00000000E+00
  0.00000000E+00  0.00000000E+00  0.00000000E+00
  0.00000000E+00  0.00000000E+00  0.00000000E+00
  0.00000000E+00  0.00000000E+00  0.00000000E+00
  0.00000000E+00  0.00000000E+00  0.00000000E+00
  0.00000000E+00  0.00000000E+00  0.00000000E+00
  0.00000000E+00  0.00000000E+00  0.00000000E+00
